[2026-03-23T16:02:38.694Z] Pipeline "set_exp_3_exp_3_n025_c004_g004" → 2026_03_23_16_02_38_set_exp_3_exp_3_n025_c004_g004_max.sol
Set parameter WLSAccessID
Set parameter WLSSecret
Set parameter LicenseID to value 2792458
Set parameter LogFile to value "gurobi.log"
Using license file /root/gurobi.lic
Academic license 2792458 - for non-commercial use only - registered to an___@studenti.unipg.it

Gurobi Optimizer version 13.0.1 build v13.0.1rc0 (linux64 - "Ubuntu 24.04.4 LTS")
Copyright (c) 2026, Gurobi Optimization, LLC

Warning: Duplicate section found (read 'binary') - Is a variable name equal to an LP file format keyword?
Warning: Duplicate section found (read 'binary') - Is a variable name equal to an LP file format keyword?
Warning: Duplicate section found (read 'binary') - Is a variable name equal to an LP file format keyword?
Warning: Duplicate section found (read 'binary') - Is a variable name equal to an LP file format keyword?
Warning: Duplicate section found (read 'binary') - Is a variable name equal to an LP file format keyword?
Warning: Duplicate section found (read 'binary') - Is a variable name equal to an LP file format keyword?
Warning: Duplicate section found (read 'binary') - Is a variable name equal to an LP file format keyword?
Warning: Duplicate section found (read 'binary') - Is a variable name equal to an LP file format keyword?
Warning: Duplicate section found (read 'binary') - Is a variable name equal to an LP file format keyword?
Warning: Duplicate section found (read 'binary') - Is a variable name equal to an LP file format keyword?
Warning: Further warnings of this type will be omitted.
Read LP format model from file /root/bgw/data/uploads/2026_03_23_16_02_38_set_exp_3_exp_3_n025_c004_g004_max.lp
Reading time = 0.01 seconds
: 5093 rows, 428 columns, 15369 nonzeros

Using Gurobi shared library /opt/gurobi1301/linux64/lib/libgurobi.so.13.0.1

CPU model: AMD EPYC-Genoa Processor, instruction set [SSE2|AVX|AVX2|AVX512]
Thread count: 16 physical cores, 16 logical processors, using up to 16 threads

Academic license 2792458 - for non-commercial use only - registered to an___@studenti.unipg.it
Optimize a model with 5093 rows, 428 columns and 15369 nonzeros (Max)
Model fingerprint: 0x35a416ec
Model has 4 linear objective coefficients
Variable types: 29 continuous, 399 integer (399 binary)
Coefficient statistics:
  Matrix range     [1e+00, 3e+01]
  Objective range  [1e+00, 1e+00]
  Bounds range     [1e+00, 1e+00]
  RHS range        [1e+00, 3e+01]

Found heuristic solution: objective 4.0000000
Presolve removed 461 rows and 107 columns
Presolve time: 0.03s
Presolved: 4632 rows, 321 columns, 14116 nonzeros
Variable types: 0 continuous, 321 integer (311 binary)
Found heuristic solution: objective 5.0000000

Root relaxation: objective 1.600000e+01, 250 iterations, 0.01 seconds (0.02 work units)

    Nodes    |    Current Node    |     Objective Bounds      |     Work
 Expl Unexpl |  Obj  Depth IntInf | Incumbent    BestBd   Gap | It/Node Time

     0     0   16.00000    0   17    5.00000   16.00000   220%     -    0s
H    0     0                      11.0000000   16.00000  45.5%     -    0s
H    0     0                      12.0000000   16.00000  33.3%     -    0s
     0     0   16.00000    0   21   12.00000   16.00000  33.3%     -    0s
     0     0   16.00000    0   18   12.00000   16.00000  33.3%     -    0s
     0     0   16.00000    0   18   12.00000   16.00000  33.3%     -    0s
     0     0   15.00000    0   26   12.00000   15.00000  25.0%     -    0s
     0     0   15.00000    0   26   12.00000   15.00000  25.0%     -    0s
     0     0   15.00000    0   17   12.00000   15.00000  25.0%     -    0s
     0     0   14.95652    0   20   12.00000   14.95652  24.6%     -    0s
     0     0   14.95652    0   15   12.00000   14.95652  24.6%     -    0s
     0     0   14.00000    0   17   12.00000   14.00000  16.7%     -    0s
     0     0   14.00000    0   13   12.00000   14.00000  16.7%     -    0s
     0     0   14.00000    0   13   12.00000   14.00000  16.7%     -    0s
     0     0   14.00000    0   21   12.00000   14.00000  16.7%     -    0s
     0     0   14.00000    0   21   12.00000   14.00000  16.7%     -    0s
     0     0   14.00000    0   20   12.00000   14.00000  16.7%     -    0s
     0     0   14.00000    0   20   12.00000   14.00000  16.7%     -    0s
     0     0   14.00000    0   15   12.00000   14.00000  16.7%     -    0s
     0     0   14.00000    0   15   12.00000   14.00000  16.7%     -    0s
     0     0   14.00000    0   15   12.00000   14.00000  16.7%     -    0s
     0     0   14.00000    0   15   12.00000   14.00000  16.7%     -    0s
     0     0   14.00000    0   15   12.00000   14.00000  16.7%     -    0s
     0     2   14.00000    0   15   12.00000   14.00000  16.7%     -    0s

Cutting planes:
  Cover: 14
  MIR: 1
  Inf proof: 26
  Zero half: 3

Explored 1447 nodes (63769 simplex iterations) in 1.10 seconds (1.41 work units)
Thread count was 16 (of 16 available processors)

Solution count 4: 12 11 5 4 

Optimal solution found (tolerance 1.00e-04)
Best objective 1.200000000000e+01, best bound 1.200000000000e+01, gap 0.0000%

Wrote result file '/root/bgw/data/results/2026_03_23_16_02_38_set_exp_3_exp_3_n025_c004_g004_max.sol'

